experiments/mac_chuffed/detailed-output/inst-2-625526429.dzn

A = 2;
T = 61;
X = 3;
Y = 3;
Z = 10;
building = array2d(0..2, 0..2, [0, 0, 0, 0, 1, 0, 0, 0, 0]);
