experiments/vl_minion/detailed-output/inst-2-625526429.param
language Essence 1.3

letting class be function(1 --> 1, 2 --> 1, 3 --> 1, 4 --> 1, 5 --> 1, 6 --> 1, 7 --> 1, 8 --> 1)
letting deck_length be 16
letting deck_width be 36
letting length be function(1 --> 11, 2 --> 3, 3 --> 3, 4 --> 13, 5 --> 7, 6 --> 3, 7 --> 1, 8 --> 9)
letting n_classes be 1
letting n_containers be 8
letting separation be function()
letting width be function(1 --> 1, 2 --> 34, 3 --> 2, 4 --> 19, 5 --> 23, 6 --> 4, 7 --> 1, 8 --> 4)
